1727
54 23 61 88 29 35 87 97 99 95 91 20 30 36 84 33 48 12 27 17 53 55 83 44 45 58 85 72 65 78 59 89 68 18 94 73 92 15 57 13 81 10 16 26 63 51 49 25 4 41 66 38 7 96 50 52 1 19 98 39 31 60 9 47 74 86 40 64 46 11 3 67 77 80 93 8 70 14 42 43 82 21 28 69 62 90 76 56 79 24 37 75 71 34 5 2 6 22 32 
